num_offers = 30;
num_halls = 10;
start=[4,16,6,32,16,22,22,31,69,1,25,20,93,11,48,5,62,10,48,2,15,13,1,78,32,23,66,40,33,15];
end=[44,26,28,75,100,86,31,61,84,5,90,65,95,26,66,11,77,70,89,69,28,70,86,83,77,60,96,79,72,83];
price=[3618,681,832,2821,5689,2690,645,324,406,164,3659,2470,141,268,200,372,1163,2886,3916,4702,527,642,1614,234,2049,1877,1734,2243,1359,4137];
requirement=[336,465,473,487,745,946,684,513,535,628,291,321,633,594,217,236,948,686,299,722,403,510,659,223,891,573,618,662,665,938];
capacity=[344,762,305,796,545,937,471,919,755,695];
